<?xml version="1.0" encoding="UTF-8"?><osil xmlns="os.optimizationservices.org"   xmlns:xsi="http://www.w3.org/2001/XMLSchema-instance" xsi:schemaLocation="os.optimizationservices.org http://www.optimizationservices.org/schemas/2.0/OSiL.xsd" ><instanceHeader><name>q_30_0_75_4</name></instanceHeader><instanceData><variables numberOfVariables="30"><var name="x1" ub="1"/><var name="x2" ub="1"/><var name="x3" ub="1"/><var name="x4" ub="1"/><var name="x5" ub="1"/><var name="x6" ub="1"/><var name="x7" ub="1"/><var name="x8" ub="1"/><var name="x9" ub="1"/><var name="x10" ub="1"/><var name="x11" ub="1"/><var name="x12" ub="1"/><var name="x13" ub="1"/><var name="x14" ub="1"/><var name="x15" ub="1"/><var name="x16" ub="1"/><var name="x17" ub="1"/><var name="x18" ub="1"/><var name="x19" ub="1"/><var name="x20" ub="1"/><var name="x21" ub="1"/><var name="x22" ub="1"/><var name="x23" ub="1"/><var name="x24" ub="1"/><var name="x25" ub="1"/><var name="x26" ub="1"/><var name="x27" ub="1"/><var name="x28" ub="1"/><var name="x29" ub="1"/><var name="x30" ub="1"/></variables><objectives numberOfObjectives="1"><obj maxOrMin="min" name="defObj_x31" numberOfObjCoef="30"><coef idx="0">-.5794</coef><coef idx="1">.227</coef><coef idx="2">-.3337</coef><coef idx="3">-.3646</coef><coef idx="4">-.4327</coef><coef idx="5">-.1094</coef><coef idx="6">.3825</coef><coef idx="7">.5071</coef><coef idx="8">.8944</coef><coef idx="9">-.3627</coef><coef idx="10">6.5e-2</coef><coef idx="11">.7137</coef><coef idx="12">.5367</coef><coef idx="13">.1169</coef><coef idx="14">.1142</coef><coef idx="15">-.814</coef><coef idx="16">.7162</coef><coef idx="17">.4038</coef><coef idx="18">.3275</coef><coef idx="19">-.7578</coef><coef idx="20">.2681</coef><coef idx="21">.618</coef><coef idx="22">.8112</coef><coef idx="23">.652</coef><coef idx="24">.5574</coef><coef idx="25">.1105</coef><coef idx="26">-.685</coef><coef idx="27">.2517</coef><coef idx="28">-.2113</coef><coef idx="29">-.9952</coef></obj></objectives><quadraticCoefficients  numberOfQuadraticTerms="240" ><qTerm  idx="-1"  idxOne="0"  idxTwo="0"  coef=".8651"/><qTerm  idx="-1"  idxOne="0"  idxTwo="1"  coef=".8738"/><qTerm  idx="-1"  idxOne="0"  idxTwo="2"  coef=".7123"/><qTerm  idx="-1"  idxOne="0"  idxTwo="3"  coef="-.789"/><qTerm  idx="-1"  idxOne="0"  idxTwo="4"  coef="-.9015"/><qTerm  idx="-1"  idxOne="0"  idxTwo="5"  coef=".8536"/><qTerm  idx="-1"  idxOne="0"  idxTwo="6"  coef="-.6222"/><qTerm  idx="-1"  idxOne="0"  idxTwo="8"  coef=".531"/><qTerm  idx="-1"  idxOne="0"  idxTwo="9"  coef="-.7534"/><qTerm  idx="-1"  idxOne="0"  idxTwo="10"  coef=".1807"/><qTerm  idx="-1"  idxOne="0"  idxTwo="11"  coef=".8496"/><qTerm  idx="-1"  idxOne="0"  idxTwo="12"  coef="7.91e-2"/><qTerm  idx="-1"  idxOne="0"  idxTwo="13"  coef=".8057"/><qTerm  idx="-1"  idxOne="0"  idxTwo="14"  coef="-.81"/><qTerm  idx="-1"  idxOne="0"  idxTwo="15"  coef=".7906"/><qTerm  idx="-1"  idxOne="0"  idxTwo="16"  coef="-.4133"/><qTerm  idx="-1"  idxOne="0"  idxTwo="18"  coef=".6907"/><qTerm  idx="-1"  idxOne="0"  idxTwo="19"  coef="9.63e-2"/><qTerm  idx="-1"  idxOne="0"  idxTwo="20"  coef="-.2825"/><qTerm  idx="-1"  idxOne="0"  idxTwo="21"  coef="3.54e-2"/><qTerm  idx="-1"  idxOne="0"  idxTwo="22"  coef=".5125"/><qTerm  idx="-1"  idxOne="0"  idxTwo="23"  coef=".9351"/><qTerm  idx="-1"  idxOne="0"  idxTwo="24"  coef=".7973"/><qTerm  idx="-1"  idxOne="0"  idxTwo="26"  coef="-.8916"/><qTerm  idx="-1"  idxOne="0"  idxTwo="27"  coef="-.7597"/><qTerm  idx="-1"  idxOne="0"  idxTwo="29"  coef=".2381"/><qTerm  idx="-1"  idxOne="1"  idxTwo="1"  coef="7.7e-3"/><qTerm  idx="-1"  idxOne="1"  idxTwo="2"  coef=".3442"/><qTerm  idx="-1"  idxOne="1"  idxTwo="3"  coef=".1405"/><qTerm  idx="-1"  idxOne="1"  idxTwo="4"  coef=".8568"/><qTerm  idx="-1"  idxOne="1"  idxTwo="6"  coef="-.261"/><qTerm  idx="-1"  idxOne="1"  idxTwo="7"  coef="-.8792"/><qTerm  idx="-1"  idxOne="1"  idxTwo="8"  coef="-6.95e-2"/><qTerm  idx="-1"  idxOne="1"  idxTwo="9"  coef="-.827"/><qTerm  idx="-1"  idxOne="1"  idxTwo="10"  coef=".5092"/><qTerm  idx="-1"  idxOne="1"  idxTwo="14"  coef=".4796"/><qTerm  idx="-1"  idxOne="1"  idxTwo="21"  coef="-.7576"/><qTerm  idx="-1"  idxOne="1"  idxTwo="26"  coef="-.2986"/><qTerm  idx="-1"  idxOne="1"  idxTwo="27"  coef="-.6192"/><qTerm  idx="-1"  idxOne="2"  idxTwo="2"  coef="-.8556"/><qTerm  idx="-1"  idxOne="2"  idxTwo="3"  coef="-7.37e-2"/><qTerm  idx="-1"  idxOne="2"  idxTwo="4"  coef="-6.14e-2"/><qTerm  idx="-1"  idxOne="2"  idxTwo="5"  coef="-8.32e-2"/><qTerm  idx="-1"  idxOne="2"  idxTwo="7"  coef="-.6275"/><qTerm  idx="-1"  idxOne="2"  idxTwo="10"  coef="-.4122"/><qTerm  idx="-1"  idxOne="2"  idxTwo="13"  coef=".1479"/><qTerm  idx="-1"  idxOne="2"  idxTwo="16"  coef="-.4795"/><qTerm  idx="-1"  idxOne="2"  idxTwo="21"  coef=".4531"/><qTerm  idx="-1"  idxOne="2"  idxTwo="22"  coef="-.564"/><qTerm  idx="-1"  idxOne="2"  idxTwo="23"  coef="-.7735"/><qTerm  idx="-1"  idxOne="2"  idxTwo="25"  coef=".5994"/><qTerm  idx="-1"  idxOne="2"  idxTwo="26"  coef=".5007"/><qTerm  idx="-1"  idxOne="2"  idxTwo="28"  coef=".5843"/><qTerm  idx="-1"  idxOne="3"  idxTwo="12"  coef="-.436"/><qTerm  idx="-1"  idxOne="3"  idxTwo="15"  coef="-.2484"/><qTerm  idx="-1"  idxOne="3"  idxTwo="22"  coef=".5402"/><qTerm  idx="-1"  idxOne="3"  idxTwo="23"  coef=".4467"/><qTerm  idx="-1"  idxOne="3"  idxTwo="24"  coef="-.7388"/><qTerm  idx="-1"  idxOne="3"  idxTwo="28"  coef=".449"/><qTerm  idx="-1"  idxOne="3"  idxTwo="29"  coef=".2"/><qTerm  idx="-1"  idxOne="4"  idxTwo="4"  coef="-.2227"/><qTerm  idx="-1"  idxOne="4"  idxTwo="5"  coef=".1216"/><qTerm  idx="-1"  idxOne="4"  idxTwo="6"  coef="-.1403"/><qTerm  idx="-1"  idxOne="4"  idxTwo="8"  coef=".2873"/><qTerm  idx="-1"  idxOne="4"  idxTwo="10"  coef="-.9251"/><qTerm  idx="-1"  idxOne="4"  idxTwo="12"  coef="-.9097"/><qTerm  idx="-1"  idxOne="4"  idxTwo="13"  coef="-.299"/><qTerm  idx="-1"  idxOne="4"  idxTwo="14"  coef="-3.7e-2"/><qTerm  idx="-1"  idxOne="4"  idxTwo="15"  coef=".1356"/><qTerm  idx="-1"  idxOne="4"  idxTwo="17"  coef=".1424"/><qTerm  idx="-1"  idxOne="4"  idxTwo="18"  coef=".9099"/><qTerm  idx="-1"  idxOne="4"  idxTwo="20"  coef="-.8295"/><qTerm  idx="-1"  idxOne="4"  idxTwo="21"  coef="-.9163"/><qTerm  idx="-1"  idxOne="4"  idxTwo="22"  coef="-.886"/><qTerm  idx="-1"  idxOne="4"  idxTwo="27"  coef="-.5395"/><qTerm  idx="-1"  idxOne="4"  idxTwo="29"  coef=".4885"/><qTerm  idx="-1"  idxOne="5"  idxTwo="7"  coef="7.33e-2"/><qTerm  idx="-1"  idxOne="5"  idxTwo="8"  coef=".6171"/><qTerm  idx="-1"  idxOne="5"  idxTwo="12"  coef=".9443"/><qTerm  idx="-1"  idxOne="5"  idxTwo="14"  coef=".8452"/><qTerm  idx="-1"  idxOne="5"  idxTwo="16"  coef=".2589"/><qTerm  idx="-1"  idxOne="5"  idxTwo="17"  coef="-.3954"/><qTerm  idx="-1"  idxOne="5"  idxTwo="18"  coef=".2099"/><qTerm  idx="-1"  idxOne="5"  idxTwo="21"  coef="-.4274"/><qTerm  idx="-1"  idxOne="5"  idxTwo="25"  coef=".7638"/><qTerm  idx="-1"  idxOne="5"  idxTwo="29"  coef="5.18e-2"/><qTerm  idx="-1"  idxOne="6"  idxTwo="7"  coef="-.7951"/><qTerm  idx="-1"  idxOne="6"  idxTwo="8"  coef="-5.08e-2"/><qTerm  idx="-1"  idxOne="6"  idxTwo="12"  coef="-.2861"/><qTerm  idx="-1"  idxOne="6"  idxTwo="22"  coef="1.63e-2"/><qTerm  idx="-1"  idxOne="6"  idxTwo="25"  coef=".3989"/><qTerm  idx="-1"  idxOne="6"  idxTwo="26"  coef="-.3631"/><qTerm  idx="-1"  idxOne="6"  idxTwo="27"  coef="-.1875"/><qTerm  idx="-1"  idxOne="6"  idxTwo="28"  coef=".6995"/><qTerm  idx="-1"  idxOne="7"  idxTwo="8"  coef=".5373"/><qTerm  idx="-1"  idxOne="7"  idxTwo="10"  coef=".7748"/><qTerm  idx="-1"  idxOne="7"  idxTwo="12"  coef="8.92e-2"/><qTerm  idx="-1"  idxOne="7"  idxTwo="13"  coef="9.3e-2"/><qTerm  idx="-1"  idxOne="7"  idxTwo="14"  coef="-.4689"/><qTerm  idx="-1"  idxOne="7"  idxTwo="15"  coef=".4298"/><qTerm  idx="-1"  idxOne="7"  idxTwo="18"  coef="-.4441"/><qTerm  idx="-1"  idxOne="7"  idxTwo="19"  coef="-.9731"/><qTerm  idx="-1"  idxOne="7"  idxTwo="21"  coef="-9.11e-2"/><qTerm  idx="-1"  idxOne="7"  idxTwo="22"  coef="-.8933"/><qTerm  idx="-1"  idxOne="7"  idxTwo="24"  coef="-.3553"/><qTerm  idx="-1"  idxOne="7"  idxTwo="26"  coef="-.1372"/><qTerm  idx="-1"  idxOne="7"  idxTwo="27"  coef=".239"/><qTerm  idx="-1"  idxOne="7"  idxTwo="28"  coef=".9347"/><qTerm  idx="-1"  idxOne="8"  idxTwo="8"  coef="-.8911"/><qTerm  idx="-1"  idxOne="8"  idxTwo="9"  coef="-.528"/><qTerm  idx="-1"  idxOne="8"  idxTwo="10"  coef="-.13"/><qTerm  idx="-1"  idxOne="8"  idxTwo="11"  coef="-.2034"/><qTerm  idx="-1"  idxOne="8"  idxTwo="12"  coef="-.69"/><qTerm  idx="-1"  idxOne="8"  idxTwo="13"  coef=".2966"/><qTerm  idx="-1"  idxOne="8"  idxTwo="14"  coef=".9593"/><qTerm  idx="-1"  idxOne="8"  idxTwo="15"  coef="-.9582"/><qTerm  idx="-1"  idxOne="8"  idxTwo="17"  coef=".4532"/><qTerm  idx="-1"  idxOne="8"  idxTwo="19"  coef=".5574"/><qTerm  idx="-1"  idxOne="8"  idxTwo="20"  coef="-.4571"/><qTerm  idx="-1"  idxOne="8"  idxTwo="22"  coef="-.9344"/><qTerm  idx="-1"  idxOne="8"  idxTwo="23"  coef="-.1114"/><qTerm  idx="-1"  idxOne="8"  idxTwo="24"  coef=".477"/><qTerm  idx="-1"  idxOne="8"  idxTwo="28"  coef="-5.15e-2"/><qTerm  idx="-1"  idxOne="9"  idxTwo="9"  coef="-.456"/><qTerm  idx="-1"  idxOne="9"  idxTwo="11"  coef=".1071"/><qTerm  idx="-1"  idxOne="9"  idxTwo="15"  coef=".3639"/><qTerm  idx="-1"  idxOne="9"  idxTwo="17"  coef=".1604"/><qTerm  idx="-1"  idxOne="9"  idxTwo="20"  coef=".7412"/><qTerm  idx="-1"  idxOne="9"  idxTwo="23"  coef="-.842"/><qTerm  idx="-1"  idxOne="9"  idxTwo="25"  coef=".2298"/><qTerm  idx="-1"  idxOne="9"  idxTwo="26"  coef="-.7632"/><qTerm  idx="-1"  idxOne="9"  idxTwo="27"  coef=".467"/><qTerm  idx="-1"  idxOne="9"  idxTwo="29"  coef="-.3678"/><qTerm  idx="-1"  idxOne="10"  idxTwo="10"  coef="-4.98e-2"/><qTerm  idx="-1"  idxOne="10"  idxTwo="11"  coef=".2148"/><qTerm  idx="-1"  idxOne="10"  idxTwo="13"  coef="-.6331"/><qTerm  idx="-1"  idxOne="10"  idxTwo="14"  coef=".1204"/><qTerm  idx="-1"  idxOne="10"  idxTwo="21"  coef=".2074"/><qTerm  idx="-1"  idxOne="10"  idxTwo="22"  coef="-7.e-4"/><qTerm  idx="-1"  idxOne="10"  idxTwo="23"  coef=".1524"/><qTerm  idx="-1"  idxOne="10"  idxTwo="25"  coef="-.1373"/><qTerm  idx="-1"  idxOne="10"  idxTwo="27"  coef="-.5286"/><qTerm  idx="-1"  idxOne="10"  idxTwo="28"  coef="5.33e-2"/><qTerm  idx="-1"  idxOne="11"  idxTwo="11"  coef="-1.13e-2"/><qTerm  idx="-1"  idxOne="11"  idxTwo="20"  coef="3.9e-2"/><qTerm  idx="-1"  idxOne="11"  idxTwo="24"  coef=".746"/><qTerm  idx="-1"  idxOne="11"  idxTwo="27"  coef="-.7493"/><qTerm  idx="-1"  idxOne="11"  idxTwo="28"  coef="-.3501"/><qTerm  idx="-1"  idxOne="12"  idxTwo="12"  coef="-.7046"/><qTerm  idx="-1"  idxOne="12"  idxTwo="13"  coef=".623"/><qTerm  idx="-1"  idxOne="12"  idxTwo="14"  coef="-.3282"/><qTerm  idx="-1"  idxOne="12"  idxTwo="17"  coef=".2535"/><qTerm  idx="-1"  idxOne="12"  idxTwo="19"  coef=".7369"/><qTerm  idx="-1"  idxOne="12"  idxTwo="20"  coef="-.3179"/><qTerm  idx="-1"  idxOne="12"  idxTwo="21"  coef="-.7554"/><qTerm  idx="-1"  idxOne="12"  idxTwo="22"  coef=".3384"/><qTerm  idx="-1"  idxOne="12"  idxTwo="27"  coef=".7428"/><qTerm  idx="-1"  idxOne="13"  idxTwo="13"  coef=".6871"/><qTerm  idx="-1"  idxOne="13"  idxTwo="14"  coef="-.2774"/><qTerm  idx="-1"  idxOne="13"  idxTwo="15"  coef=".1942"/><qTerm  idx="-1"  idxOne="13"  idxTwo="16"  coef="-3.72e-2"/><qTerm  idx="-1"  idxOne="13"  idxTwo="17"  coef=".9036"/><qTerm  idx="-1"  idxOne="13"  idxTwo="19"  coef=".9891"/><qTerm  idx="-1"  idxOne="13"  idxTwo="21"  coef=".2623"/><qTerm  idx="-1"  idxOne="13"  idxTwo="24"  coef=".4058"/><qTerm  idx="-1"  idxOne="13"  idxTwo="27"  coef=".2905"/><qTerm  idx="-1"  idxOne="13"  idxTwo="28"  coef=".8707"/><qTerm  idx="-1"  idxOne="13"  idxTwo="29"  coef="-.6906"/><qTerm  idx="-1"  idxOne="14"  idxTwo="16"  coef="1.75e-2"/><qTerm  idx="-1"  idxOne="14"  idxTwo="17"  coef=".7644"/><qTerm  idx="-1"  idxOne="14"  idxTwo="19"  coef=".1747"/><qTerm  idx="-1"  idxOne="14"  idxTwo="22"  coef="-.3217"/><qTerm  idx="-1"  idxOne="14"  idxTwo="23"  coef="-.3756"/><qTerm  idx="-1"  idxOne="14"  idxTwo="24"  coef="-.4446"/><qTerm  idx="-1"  idxOne="14"  idxTwo="26"  coef="-.5191"/><qTerm  idx="-1"  idxOne="14"  idxTwo="27"  coef=".8229"/><qTerm  idx="-1"  idxOne="14"  idxTwo="29"  coef="-5.85e-2"/><qTerm  idx="-1"  idxOne="15"  idxTwo="15"  coef=".7931"/><qTerm  idx="-1"  idxOne="15"  idxTwo="17"  coef=".2165"/><qTerm  idx="-1"  idxOne="15"  idxTwo="18"  coef=".3018"/><qTerm  idx="-1"  idxOne="15"  idxTwo="20"  coef="-.6853"/><qTerm  idx="-1"  idxOne="15"  idxTwo="21"  coef=".4834"/><qTerm  idx="-1"  idxOne="15"  idxTwo="22"  coef="-.9677"/><qTerm  idx="-1"  idxOne="15"  idxTwo="24"  coef=".9793"/><qTerm  idx="-1"  idxOne="15"  idxTwo="25"  coef="-.3145"/><qTerm  idx="-1"  idxOne="15"  idxTwo="27"  coef=".9356"/><qTerm  idx="-1"  idxOne="15"  idxTwo="28"  coef="-.651"/><qTerm  idx="-1"  idxOne="15"  idxTwo="29"  coef="-.7873"/><qTerm  idx="-1"  idxOne="16"  idxTwo="16"  coef=".5914"/><qTerm  idx="-1"  idxOne="16"  idxTwo="22"  coef="-.82"/><qTerm  idx="-1"  idxOne="16"  idxTwo="23"  coef="-.8009"/><qTerm  idx="-1"  idxOne="17"  idxTwo="17"  coef="-.4826"/><qTerm  idx="-1"  idxOne="17"  idxTwo="18"  coef="-.2493"/><qTerm  idx="-1"  idxOne="17"  idxTwo="23"  coef=".5075"/><qTerm  idx="-1"  idxOne="17"  idxTwo="26"  coef="-.6548"/><qTerm  idx="-1"  idxOne="17"  idxTwo="28"  coef="-.7159"/><qTerm  idx="-1"  idxOne="17"  idxTwo="29"  coef="-.7049"/><qTerm  idx="-1"  idxOne="18"  idxTwo="18"  coef="-.3438"/><qTerm  idx="-1"  idxOne="18"  idxTwo="22"  coef="-.1976"/><qTerm  idx="-1"  idxOne="18"  idxTwo="24"  coef="7.9e-3"/><qTerm  idx="-1"  idxOne="18"  idxTwo="25"  coef="-.8311"/><qTerm  idx="-1"  idxOne="18"  idxTwo="26"  coef=".3371"/><qTerm  idx="-1"  idxOne="18"  idxTwo="27"  coef=".6852"/><qTerm  idx="-1"  idxOne="18"  idxTwo="28"  coef=".2669"/><qTerm  idx="-1"  idxOne="18"  idxTwo="29"  coef=".3508"/><qTerm  idx="-1"  idxOne="19"  idxTwo="20"  coef="-.281"/><qTerm  idx="-1"  idxOne="19"  idxTwo="21"  coef="-.1383"/><qTerm  idx="-1"  idxOne="19"  idxTwo="22"  coef="-.5659"/><qTerm  idx="-1"  idxOne="19"  idxTwo="24"  coef="8.e-3"/><qTerm  idx="-1"  idxOne="19"  idxTwo="27"  coef="-.2438"/><qTerm  idx="-1"  idxOne="19"  idxTwo="28"  coef=".8352"/><qTerm  idx="-1"  idxOne="19"  idxTwo="29"  coef="-.6792"/><qTerm  idx="-1"  idxOne="20"  idxTwo="20"  coef="-.505"/><qTerm  idx="-1"  idxOne="20"  idxTwo="22"  coef="-.117"/><qTerm  idx="-1"  idxOne="20"  idxTwo="23"  coef="-.3067"/><qTerm  idx="-1"  idxOne="20"  idxTwo="28"  coef="-.3803"/><qTerm  idx="-1"  idxOne="20"  idxTwo="29"  coef=".7882"/><qTerm  idx="-1"  idxOne="21"  idxTwo="25"  coef=".3372"/><qTerm  idx="-1"  idxOne="21"  idxTwo="27"  coef="-.919"/><qTerm  idx="-1"  idxOne="21"  idxTwo="29"  coef="-.7383"/><qTerm  idx="-1"  idxOne="22"  idxTwo="22"  coef=".7541"/><qTerm  idx="-1"  idxOne="22"  idxTwo="25"  coef=".5834"/><qTerm  idx="-1"  idxOne="22"  idxTwo="27"  coef=".1474"/><qTerm  idx="-1"  idxOne="22"  idxTwo="28"  coef="9.48e-2"/><qTerm  idx="-1"  idxOne="22"  idxTwo="29"  coef="-.3359"/><qTerm  idx="-1"  idxOne="23"  idxTwo="23"  coef=".165"/><qTerm  idx="-1"  idxOne="23"  idxTwo="28"  coef=".3496"/><qTerm  idx="-1"  idxOne="24"  idxTwo="24"  coef=".6279"/><qTerm  idx="-1"  idxOne="24"  idxTwo="26"  coef="-.6031"/><qTerm  idx="-1"  idxOne="24"  idxTwo="27"  coef=".1115"/><qTerm  idx="-1"  idxOne="24"  idxTwo="28"  coef="-.7796"/><qTerm  idx="-1"  idxOne="25"  idxTwo="27"  coef="-.5661"/><qTerm  idx="-1"  idxOne="25"  idxTwo="28"  coef=".1693"/><qTerm  idx="-1"  idxOne="25"  idxTwo="29"  coef=".957"/><qTerm  idx="-1"  idxOne="26"  idxTwo="26"  coef=".7301"/><qTerm  idx="-1"  idxOne="26"  idxTwo="29"  coef="-.1917"/><qTerm  idx="-1"  idxOne="27"  idxTwo="27"  coef=".9096"/><qTerm  idx="-1"  idxOne="27"  idxTwo="28"  coef="-.2321"/><qTerm  idx="-1"  idxOne="28"  idxTwo="28"  coef="-.1408"/><qTerm  idx="-1"  idxOne="29"  idxTwo="29"  coef=".9235"/></quadraticCoefficients></instanceData></osil>
